Route #1: 69 98 88 55
Route #2: 92 42 39 36 72 71 0 23 21 18 19 0 83 22 20 49 24 66 0 34 26 32 50
Route #3: 65 64 57 86 99 0 9 10 13 17 60
Route #4: 95 33 30 27 28 29 31 67 0 90 52 87 59 75 97 74
Route #5: 11 15 16 47 14 0 79 73 78 12 53 82 0 91 89 48 25 77 58
Route #6: 61 44 40 38 41 0 1 3 5 46 4
Route #7: 62 85 63 76 51 84 56 0 68 37 35 43 70 100
Route #8: 2 45 8 7 6 0 81 54 96 94 93 80
Cost: 17604
Optimal: True
